instances/knapsack/knapsack_interdiction/knapsack_20_10_5.mps
* Signature: 0xe03e275faf75ccec
NAME knapsack_20_10_5
ROWS
 N  OBJ
 L  primal_upper
 L  primal_lower0
 L  primal_lower1
 L  primal_lower2
 L  primal_lower3
 L  primal_lower4
 L  primal_lower5
 L  primal_lower6
 L  primal_lower7
 L  primal_lower8
 L  primal_lower9
 L  interdiction[0]
 L  interdiction[1]
 L  interdiction[2]
 L  interdiction[3]
 L  interdiction[4]
 L  interdiction[5]
 L  interdiction[6]
 L  interdiction[7]
 L  interdiction[8]
 L  interdiction[9]
 L  interdiction[10]
 L  interdiction[11]
 L  interdiction[12]
 L  interdiction[13]
 L  interdiction[14]
 L  interdiction[15]
 L  interdiction[16]
 L  interdiction[17]
 L  interdiction[18]
 L  interdiction[19]
 L  mccormick1[0]
 L  mccormick1[1]
 L  mccormick1[2]
 L  mccormick1[3]
 L  mccormick1[4]
 L  mccormick1[5]
 L  mccormick1[6]
 L  mccormick1[7]
 L  mccormick1[8]
 L  mccormick1[9]
 L  mccormick1[10]
 L  mccormick1[11]
 L  mccormick1[12]
 L  mccormick1[13]
 L  mccormick1[14]
 L  mccormick1[15]
 L  mccormick1[16]
 L  mccormick1[17]
 L  mccormick1[18]
 L  mccormick1[19]
 L  mccormick2[0]
 L  mccormick2[1]
 L  mccormick2[2]
 L  mccormick2[3]
 L  mccormick2[4]
 L  mccormick2[5]
 L  mccormick2[6]
 L  mccormick2[7]
 L  mccormick2[8]
 L  mccormick2[9]
 L  mccormick2[10]
 L  mccormick2[11]
 L  mccormick2[12]
 L  mccormick2[13]
 L  mccormick2[14]
 L  mccormick2[15]
 L  mccormick2[16]
 L  mccormick2[17]
 L  mccormick2[18]
 L  mccormick2[19]
 L  mccormick3[0]
 L  mccormick3[1]
 L  mccormick3[2]
 L  mccormick3[3]
 L  mccormick3[4]
 L  mccormick3[5]
 L  mccormick3[6]
 L  mccormick3[7]
 L  mccormick3[8]
 L  mccormick3[9]
 L  mccormick3[10]
 L  mccormick3[11]
 L  mccormick3[12]
 L  mccormick3[13]
 L  mccormick3[14]
 L  mccormick3[15]
 L  mccormick3[16]
 L  mccormick3[17]
 L  mccormick3[18]
 L  mccormick3[19]
COLUMNS
    MARKER    'MARKER'                 'INTORG'
    x[0]      OBJ       45.51
    x[0]      interdiction[0]  1
    x[1]      OBJ       100.64
    x[1]      interdiction[1]  1
    x[2]      OBJ       130.44
    x[2]      interdiction[2]  1
    x[3]      OBJ       116.94
    x[3]      interdiction[3]  1
    x[4]      OBJ       115.37
    x[4]      interdiction[4]  1
    x[5]      OBJ       118.35
    x[5]      interdiction[5]  1
    x[6]      OBJ       137.16
    x[6]      interdiction[6]  1
    x[7]      OBJ       79.55
    x[7]      interdiction[7]  1
    x[8]      OBJ       161.07
    x[8]      interdiction[8]  1
    x[9]      OBJ       160.72
    x[9]      interdiction[9]  1
    x[10]     OBJ       86.79
    x[10]     interdiction[10]  1
    x[11]     OBJ       66.06
    x[11]     interdiction[11]  1
    x[12]     OBJ       108.71
    x[12]     interdiction[12]  1
    x[13]     OBJ       89.16
    x[13]     interdiction[13]  1
    x[14]     OBJ       122.24
    x[14]     interdiction[14]  1
    x[15]     OBJ       91.99
    x[15]     interdiction[15]  1
    x[16]     OBJ       58.16
    x[16]     interdiction[16]  1
    x[17]     OBJ       162.29
    x[17]     interdiction[17]  1
    x[18]     OBJ       125.86
    x[18]     interdiction[18]  1
    x[19]     OBJ       134.95
    x[19]     interdiction[19]  1
    y[0]      OBJ       -337
    y[0]      primal_upper  237
    y[0]      mccormick2[0]  -1
    y[0]      mccormick3[0]  1
    y[1]      OBJ       -723
    y[1]      primal_upper  623
    y[1]      mccormick2[1]  -1
    y[1]      mccormick3[1]  1
    y[2]      OBJ       -821
    y[2]      primal_upper  721
    y[2]      mccormick2[2]  -1
    y[2]      mccormick3[2]  1
    y[3]      OBJ       -924
    y[3]      primal_upper  824
    y[3]      mccormick2[3]  -1
    y[3]      mccormick3[3]  1
    y[4]      OBJ       -875
    y[4]      primal_upper  775
    y[4]      mccormick2[4]  -1
    y[4]      mccormick3[4]  1
    y[5]      OBJ       -901
    y[5]      primal_upper  801
    y[5]      mccormick2[5]  -1
    y[5]      mccormick3[5]  1
    y[6]      OBJ       -780
    y[6]      primal_upper  680
    y[6]      mccormick2[6]  -1
    y[6]      mccormick3[6]  1
    y[7]      OBJ       -625
    y[7]      primal_upper  525
    y[7]      mccormick2[7]  -1
    y[7]      mccormick3[7]  1
    y[8]      OBJ       -925
    y[8]      primal_upper  825
    y[8]      mccormick2[8]  -1
    y[8]      mccormick3[8]  1
    y[9]      OBJ       -1039
    y[9]      primal_upper  939
    y[9]      mccormick2[9]  -1
    y[9]      mccormick3[9]  1
    y[10]     OBJ       -507
    y[10]     primal_upper  407
    y[10]     mccormick2[10]  -1
    y[10]     mccormick3[10]  1
    y[11]     OBJ       -470
    y[11]     primal_upper  370
    y[11]     mccormick2[11]  -1
    y[11]     mccormick3[11]  1
    y[12]     OBJ       -558
    y[12]     primal_upper  458
    y[12]     mccormick2[12]  -1
    y[12]     mccormick3[12]  1
    y[13]     OBJ       -839
    y[13]     primal_upper  739
    y[13]     mccormick2[13]  -1
    y[13]     mccormick3[13]  1
    y[14]     OBJ       -1029
    y[14]     primal_upper  929
    y[14]     mccormick2[14]  -1
    y[14]     mccormick3[14]  1
    y[15]     OBJ       -481
    y[15]     primal_upper  381
    y[15]     mccormick2[15]  -1
    y[15]     mccormick3[15]  1
    y[16]     OBJ       -526
    y[16]     primal_upper  426
    y[16]     mccormick2[16]  -1
    y[16]     mccormick3[16]  1
    y[17]     OBJ       -828
    y[17]     primal_upper  728
    y[17]     mccormick2[17]  -1
    y[17]     mccormick3[17]  1
    y[18]     OBJ       -859
    y[18]     primal_upper  759
    y[18]     mccormick2[18]  -1
    y[18]     mccormick3[18]  1
    y[19]     OBJ       -928
    y[19]     primal_upper  828
    y[19]     mccormick2[19]  -1
    y[19]     mccormick3[19]  1
    u[0]      primal_lower0  931
    u[0]      primal_lower1  996
    u[0]      primal_lower2  956
    u[0]      primal_lower3  115
    u[0]      primal_lower4  906
    u[0]      primal_lower5  931
    u[0]      primal_lower6  914
    u[0]      primal_lower7  366
    u[0]      primal_lower8  714
    u[0]      primal_lower9  487
    u[0]      interdiction[0]  1
    u[0]      mccormick1[0]  -1
    u[0]      mccormick3[0]  1
    u[1]      primal_lower0  853
    u[1]      primal_lower1  346
    u[1]      primal_lower2  162
    u[1]      primal_lower3  980
    u[1]      primal_lower4  16
    u[1]      primal_lower5  788
    u[1]      primal_lower6  704
    u[1]      primal_lower7  571
    u[1]      primal_lower8  911
    u[1]      primal_lower9  857
    u[1]      interdiction[1]  1
    u[1]      mccormick1[1]  -1
    u[1]      mccormick3[1]  1
    u[2]      primal_lower0  831
    u[2]      primal_lower1  536
    u[2]      primal_lower2  144
    u[2]      primal_lower3  500
    u[2]      primal_lower4  206
    u[2]      primal_lower5  684
    u[2]      primal_lower6  254
    u[2]      primal_lower7  439
    u[2]      primal_lower8  795
    u[2]      primal_lower9  339
    u[2]      interdiction[2]  1
    u[2]      mccormick1[2]  -1
    u[2]      mccormick3[2]  1
    u[3]      primal_lower0  950
    u[3]      primal_lower1  763
    u[3]      primal_lower2  931
    u[3]      primal_lower3  304
    u[3]      primal_lower4  537
    u[3]      primal_lower5  224
    u[3]      primal_lower6  681
    u[3]      primal_lower7  231
    u[3]      primal_lower8  91
    u[3]      primal_lower9  130
    u[3]      interdiction[3]  1
    u[3]      mccormick1[3]  -1
    u[3]      mccormick3[3]  1
    u[4]      primal_lower0  541
    u[4]      primal_lower1  174
    u[4]      primal_lower2  406
    u[4]      primal_lower3  558
    u[4]      primal_lower4  292
    u[4]      primal_lower5  534
    u[4]      primal_lower6  260
    u[4]      primal_lower7  833
    u[4]      primal_lower8  157
    u[4]      primal_lower9  593
    u[4]      interdiction[4]  1
    u[4]      mccormick1[4]  -1
    u[4]      mccormick3[4]  1
    u[5]      primal_lower0  863
    u[5]      primal_lower1  484
    u[5]      primal_lower2  188
    u[5]      primal_lower3  382
    u[5]      primal_lower4  194
    u[5]      primal_lower5  534
    u[5]      primal_lower6  818
    u[5]      primal_lower7  469
    u[5]      primal_lower8  129
    u[5]      primal_lower9  571
    u[5]      interdiction[5]  1
    u[5]      mccormick1[5]  -1
    u[5]      mccormick3[5]  1
    u[6]      primal_lower0  334
    u[6]      primal_lower1  287
    u[6]      primal_lower2  783
    u[6]      primal_lower3  155
    u[6]      primal_lower4  845
    u[6]      primal_lower5  27
    u[6]      primal_lower6  325
    u[6]      primal_lower7  902
    u[6]      primal_lower8  10
    u[6]      primal_lower9  370
    u[6]      interdiction[6]  1
    u[6]      mccormick1[6]  -1
    u[6]      mccormick3[6]  1
    u[7]      primal_lower0  859
    u[7]      primal_lower1  248
    u[7]      primal_lower2  864
    u[7]      primal_lower3  150
    u[7]      primal_lower4  206
    u[7]      primal_lower5  190
    u[7]      primal_lower6  542
    u[7]      primal_lower7  149
    u[7]      primal_lower8  601
    u[7]      primal_lower9  495
    u[7]      interdiction[7]  1
    u[7]      mccormick1[7]  -1
    u[7]      mccormick3[7]  1
    u[8]      primal_lower0  799
    u[8]      primal_lower1  408
    u[8]      primal_lower2  424
    u[8]      primal_lower3  680
    u[8]      primal_lower4  654
    u[8]      primal_lower5  560
    u[8]      primal_lower6  974
    u[8]      primal_lower7  395
    u[8]      primal_lower8  271
    u[8]      primal_lower9  971
    u[8]      interdiction[8]  1
    u[8]      mccormick1[8]  -1
    u[8]      mccormick3[8]  1
    u[9]      primal_lower0  745
    u[9]      primal_lower1  670
    u[9]      primal_lower2  862
    u[9]      primal_lower3  687
    u[9]      primal_lower4  60
    u[9]      primal_lower5  791
    u[9]      primal_lower6  644
    u[9]      primal_lower7  606
    u[9]      primal_lower8  778
    u[9]      primal_lower9  949
    u[9]      interdiction[9]  1
    u[9]      mccormick1[9]  -1
    u[9]      mccormick3[9]  1
    u[10]     primal_lower0  501
    u[10]     primal_lower1  358
    u[10]     primal_lower2  150
    u[10]     primal_lower3  793
    u[10]     primal_lower4  252
    u[10]     primal_lower5  753
    u[10]     primal_lower6  4
    u[10]     primal_lower7  276
    u[10]     primal_lower8  544
    u[10]     primal_lower9  545
    u[10]     interdiction[10]  1
    u[10]     mccormick1[10]  -1
    u[10]     mccormick3[10]  1
    u[11]     primal_lower0  80
    u[11]     primal_lower1  461
    u[11]     primal_lower2  997
    u[11]     primal_lower3  299
    u[11]     primal_lower4  83
    u[11]     primal_lower5  307
    u[11]     primal_lower6  627
    u[11]     primal_lower7  338
    u[11]     primal_lower8  94
    u[11]     primal_lower9  948
    u[11]     interdiction[11]  1
    u[11]     mccormick1[11]  -1
    u[11]     mccormick3[11]  1
    u[12]     primal_lower0  784
    u[12]     primal_lower1  361
    u[12]     primal_lower2  289
    u[12]     primal_lower3  953
    u[12]     primal_lower4  423
    u[12]     primal_lower5  625
    u[12]     primal_lower6  567
    u[12]     primal_lower7  300
    u[12]     primal_lower8  720
    u[12]     primal_lower9  364
    u[12]     interdiction[12]  1
    u[12]     mccormick1[12]  -1
    u[12]     mccormick3[12]  1
    u[13]     primal_lower0  433
    u[13]     primal_lower1  278
    u[13]     primal_lower2  174
    u[13]     primal_lower3  439
    u[13]     primal_lower4  748
    u[13]     primal_lower5  823
    u[13]     primal_lower6  500
    u[13]     primal_lower7  486
    u[13]     primal_lower8  506
    u[13]     primal_lower9  781
    u[13]     interdiction[13]  1
    u[13]     mccormick1[13]  -1
    u[13]     mccormick3[13]  1
    u[14]     primal_lower0  255
    u[14]     primal_lower1  560
    u[14]     primal_lower2  816
    u[14]     primal_lower3  155
    u[14]     primal_lower4  846
    u[14]     primal_lower5  211
    u[14]     primal_lower6  638
    u[14]     primal_lower7  870
    u[14]     primal_lower8  946
    u[14]     primal_lower9  707
    u[14]     interdiction[14]  1
    u[14]     mccormick1[14]  -1
    u[14]     mccormick3[14]  1
    u[15]     primal_lower0  595
    u[15]     primal_lower1  504
    u[15]     primal_lower2  872
    u[15]     primal_lower3  861
    u[15]     primal_lower4  374
    u[15]     primal_lower5  261
    u[15]     primal_lower6  534
    u[15]     primal_lower7  532
    u[15]     primal_lower8  352
    u[15]     primal_lower9  455
    u[15]     interdiction[15]  1
    u[15]     mccormick1[15]  -1
    u[15]     mccormick3[15]  1
    u[16]     primal_lower0  128
    u[16]     primal_lower1  553
    u[16]     primal_lower2  713
    u[16]     primal_lower3  297
    u[16]     primal_lower4  207
    u[16]     primal_lower5  305
    u[16]     primal_lower6  415
    u[16]     primal_lower7  148
    u[16]     primal_lower8  680
    u[16]     primal_lower9  452
    u[16]     interdiction[16]  1
    u[16]     mccormick1[16]  -1
    u[16]     mccormick3[16]  1
    u[17]     primal_lower0  694
    u[17]     primal_lower1  91
    u[17]     primal_lower2  835
    u[17]     primal_lower3  68
    u[17]     primal_lower4  385
    u[17]     primal_lower5  340
    u[17]     primal_lower6  305
    u[17]     primal_lower7  907
    u[17]     primal_lower8  759
    u[17]     primal_lower9  10
    u[17]     interdiction[17]  1
    u[17]     mccormick1[17]  -1
    u[17]     mccormick3[17]  1
    u[18]     primal_lower0  181
    u[18]     primal_lower1  758
    u[18]     primal_lower2  230
    u[18]     primal_lower3  714
    u[18]     primal_lower4  788
    u[18]     primal_lower5  338
    u[18]     primal_lower6  292
    u[18]     primal_lower7  629
    u[18]     primal_lower8  65
    u[18]     primal_lower9  105
    u[18]     interdiction[18]  1
    u[18]     mccormick1[18]  -1
    u[18]     mccormick3[18]  1
    u[19]     primal_lower0  410
    u[19]     primal_lower1  719
    u[19]     primal_lower2  719
    u[19]     primal_lower3  476
    u[19]     primal_lower4  149
    u[19]     primal_lower5  172
    u[19]     primal_lower6  213
    u[19]     primal_lower7  371
    u[19]     primal_lower8  751
    u[19]     primal_lower9  662
    u[19]     interdiction[19]  1
    u[19]     mccormick1[19]  -1
    u[19]     mccormick3[19]  1
    z[0]      primal_upper  24
    z[0]      mccormick1[0]  1
    z[0]      mccormick2[0]  1
    z[0]      mccormick3[0]  -1
    z[1]      primal_upper  62
    z[1]      mccormick1[1]  1
    z[1]      mccormick2[1]  1
    z[1]      mccormick3[1]  -1
    z[2]      primal_upper  72
    z[2]      mccormick1[2]  1
    z[2]      mccormick2[2]  1
    z[2]      mccormick3[2]  -1
    z[3]      primal_upper  82
    z[3]      mccormick1[3]  1
    z[3]      mccormick2[3]  1
    z[3]      mccormick3[3]  -1
    z[4]      primal_upper  78
    z[4]      mccormick1[4]  1
    z[4]      mccormick2[4]  1
    z[4]      mccormick3[4]  -1
    z[5]      primal_upper  80
    z[5]      mccormick1[5]  1
    z[5]      mccormick2[5]  1
    z[5]      mccormick3[5]  -1
    z[6]      primal_upper  68
    z[6]      mccormick1[6]  1
    z[6]      mccormick2[6]  1
    z[6]      mccormick3[6]  -1
    z[7]      primal_upper  52
    z[7]      mccormick1[7]  1
    z[7]      mccormick2[7]  1
    z[7]      mccormick3[7]  -1
    z[8]      primal_upper  82
    z[8]      mccormick1[8]  1
    z[8]      mccormick2[8]  1
    z[8]      mccormick3[8]  -1
    z[9]      primal_upper  94
    z[9]      mccormick1[9]  1
    z[9]      mccormick2[9]  1
    z[9]      mccormick3[9]  -1
    z[10]     primal_upper  41
    z[10]     mccormick1[10]  1
    z[10]     mccormick2[10]  1
    z[10]     mccormick3[10]  -1
    z[11]     primal_upper  37
    z[11]     mccormick1[11]  1
    z[11]     mccormick2[11]  1
    z[11]     mccormick3[11]  -1
    z[12]     primal_upper  46
    z[12]     mccormick1[12]  1
    z[12]     mccormick2[12]  1
    z[12]     mccormick3[12]  -1
    z[13]     primal_upper  74
    z[13]     mccormick1[13]  1
    z[13]     mccormick2[13]  1
    z[13]     mccormick3[13]  -1
    z[14]     primal_upper  93
    z[14]     mccormick1[14]  1
    z[14]     mccormick2[14]  1
    z[14]     mccormick3[14]  -1
    z[15]     primal_upper  38
    z[15]     mccormick1[15]  1
    z[15]     mccormick2[15]  1
    z[15]     mccormick3[15]  -1
    z[16]     primal_upper  43
    z[16]     mccormick1[16]  1
    z[16]     mccormick2[16]  1
    z[16]     mccormick3[16]  -1
    z[17]     primal_upper  73
    z[17]     mccormick1[17]  1
    z[17]     mccormick2[17]  1
    z[17]     mccormick3[17]  -1
    z[18]     primal_upper  76
    z[18]     mccormick1[18]  1
    z[18]     mccormick2[18]  1
    z[18]     mccormick3[18]  -1
    z[19]     primal_upper  83
    z[19]     mccormick1[19]  1
    z[19]     mccormick2[19]  1
    z[19]     mccormick3[19]  -1
    MARKER    'MARKER'                 'INTEND'
RHS
    RHS1      primal_upper  2162
    RHS1      primal_lower0  950
    RHS1      primal_lower1  1592
    RHS1      primal_lower2  5757
    RHS1      primal_lower3  3188
    RHS1      primal_lower4  2723
    RHS1      primal_lower5  3132
    RHS1      primal_lower6  3403
    RHS1      primal_lower7  3272
    RHS1      primal_lower8  1645
    RHS1      primal_lower9  5395
    RHS1      interdiction[0]  1
    RHS1      interdiction[1]  1
    RHS1      interdiction[2]  1
    RHS1      interdiction[3]  1
    RHS1      interdiction[4]  1
    RHS1      interdiction[5]  1
    RHS1      interdiction[6]  1
    RHS1      interdiction[7]  1
    RHS1      interdiction[8]  1
    RHS1      interdiction[9]  1
    RHS1      interdiction[10]  1
    RHS1      interdiction[11]  1
    RHS1      interdiction[12]  1
    RHS1      interdiction[13]  1
    RHS1      interdiction[14]  1
    RHS1      interdiction[15]  1
    RHS1      interdiction[16]  1
    RHS1      interdiction[17]  1
    RHS1      interdiction[18]  1
    RHS1      interdiction[19]  1
    RHS1      mccormick3[0]  1
    RHS1      mccormick3[1]  1
    RHS1      mccormick3[2]  1
    RHS1      mccormick3[3]  1
    RHS1      mccormick3[4]  1
    RHS1      mccormick3[5]  1
    RHS1      mccormick3[6]  1
    RHS1      mccormick3[7]  1
    RHS1      mccormick3[8]  1
    RHS1      mccormick3[9]  1
    RHS1      mccormick3[10]  1
    RHS1      mccormick3[11]  1
    RHS1      mccormick3[12]  1
    RHS1      mccormick3[13]  1
    RHS1      mccormick3[14]  1
    RHS1      mccormick3[15]  1
    RHS1      mccormick3[16]  1
    RHS1      mccormick3[17]  1
    RHS1      mccormick3[18]  1
    RHS1      mccormick3[19]  1
BOUNDS
 BV BND1      x[0]    
 BV BND1      x[1]    
 BV BND1      x[2]    
 BV BND1      x[3]    
 BV BND1      x[4]    
 BV BND1      x[5]    
 BV BND1      x[6]    
 BV BND1      x[7]    
 BV BND1      x[8]    
 BV BND1      x[9]    
 BV BND1      x[10]   
 BV BND1      x[11]   
 BV BND1      x[12]   
 BV BND1      x[13]   
 BV BND1      x[14]   
 BV BND1      x[15]   
 BV BND1      x[16]   
 BV BND1      x[17]   
 BV BND1      x[18]   
 BV BND1      x[19]   
 BV BND1      y[0]    
 BV BND1      y[1]    
 BV BND1      y[2]    
 BV BND1      y[3]    
 BV BND1      y[4]    
 BV BND1      y[5]    
 BV BND1      y[6]    
 BV BND1      y[7]    
 BV BND1      y[8]    
 BV BND1      y[9]    
 BV BND1      y[10]   
 BV BND1      y[11]   
 BV BND1      y[12]   
 BV BND1      y[13]   
 BV BND1      y[14]   
 BV BND1      y[15]   
 BV BND1      y[16]   
 BV BND1      y[17]   
 BV BND1      y[18]   
 BV BND1      y[19]   
 BV BND1      u[0]    
 BV BND1      u[1]    
 BV BND1      u[2]    
 BV BND1      u[3]    
 BV BND1      u[4]    
 BV BND1      u[5]    
 BV BND1      u[6]    
 BV BND1      u[7]    
 BV BND1      u[8]    
 BV BND1      u[9]    
 BV BND1      u[10]   
 BV BND1      u[11]   
 BV BND1      u[12]   
 BV BND1      u[13]   
 BV BND1      u[14]   
 BV BND1      u[15]   
 BV BND1      u[16]   
 BV BND1      u[17]   
 BV BND1      u[18]   
 BV BND1      u[19]   
 BV BND1      z[0]    
 BV BND1      z[1]    
 BV BND1      z[2]    
 BV BND1      z[3]    
 BV BND1      z[4]    
 BV BND1      z[5]    
 BV BND1      z[6]    
 BV BND1      z[7]    
 BV BND1      z[8]    
 BV BND1      z[9]    
 BV BND1      z[10]   
 BV BND1      z[11]   
 BV BND1      z[12]   
 BV BND1      z[13]   
 BV BND1      z[14]   
 BV BND1      z[15]   
 BV BND1      z[16]   
 BV BND1      z[17]   
 BV BND1      z[18]   
 BV BND1      z[19]   
ENDATA
